
%FILE DATA:	Soccer Computational Problem for MiniZinc Models	%
%AUTHOR:	Jack Wall	%
%CONTACT:  	116397063@umail.ucc.ie			%
%LAST UPDATE:	03/12/2020, 10:36:46						%
%DESCRIPTION: 	143 games played with 13 games left				%


n=13; %number of teams

%Games to play
games=[|8,4|5,9|8,10|9,4|9,6|7,1|6,4|8,9|10,6|11,1|6,3|1,10|7,13|];

%Initial points
iPoints=[47,31,29,25,24,26,30,27,26,31,30,30,20];

%POSITION CONSTRAINTS
% [|teamID, operator, position|...]
% operators index:
%  1 for =  operator
%  2 for >  operator
%  3 for >= operator
%  4 for <  operator
%  5 for <= operator
positionConstraints=[|1,3,1|6,4,3|9,2,2|];